
<<< setup

Tried aggregator 1 time.
LP Presolve eliminated 126 rows and 95 columns.
Reduced LP has 2 rows, 17 columns, and 17 nonzeros.
Presolve time = 0.00 sec. (0.05 ticks)

Iteration log . . .
Iteration:     1   Dual objective     =          1695.750385
main returns 0

<<< main


<<< done

